200
1000
378
375
370
368
364
364
364
361
360
360
350
349
349
347
345
340
340
339
339
339
335
332
330
321
321
321
317
316
313
312
311
310
307
304
303
298
295
294
292
292
279
277
277
274
271
267
267
267
265
263
262
261
259
256
255
254
253
251
251
250
248
247
246
245
245
243
242
242
241
239
238
238
236
236
235
234
232
231
230
229
225
223
223
222
221
220
216
216
216
216
215
213
213
212
210
209
203
200
198
197
197
192
191
190
187
187
186
185
185
178
178
175
174
174
172
170
169
165
165
157
156
154
154
154
154
148
148
147
145
144
142
142
139
136
136
135
134
133
129
129
128
128
127
127
125
124
124
124
123
122
118
113
112
111
108
108
107
106
101
98
96
96
94
94
91
89
88
86
82
79
76
72
71
70
67
65
65
63
63
62
61
60
58
57
55
47
47
47
45
36
35
31
28
28
28
28
28
25
24
23
